W=5;
H=5;

MAX_TIME=29;
MAX_TRACKS=13;

TARGET=(4,5);

TRAINS=[(1,2,RIGHT),(5,5,LEFT)];

INIT_POS=[
(1,2,STRAIGHT_RL),
(1,4,STRAIGHT_RL),
(2,5,STRAIGHT_TD),
(4,1,STRAIGHT_TD),
(4,5,STRAIGHT_RL),
(5,2,STRAIGHT_RL),
(5,5,STRAIGHT_RL),
];
TUNNEL_PAIRS=[];

GATES=[];
ACTIVATIONS=[];

DSWITCHES=[];

STATIONS=[
  (1,4,2),
  (2,5,1),
  (4,1,2),
  (5,2,1),
];
